VRPTWMS/instances/mip/fuel/4/N4-C_DV100-C_SV30_F6_9_No_1.log

Gurobi 6.0.4 (win64) logging started 06/21/15 19:06:16

Read LP format model from file C:\MT\repository\VRPTWMS\instances\mip\fuel\N4-C_DV100-C_SV30_F6_9_No_1.lp
Reading time = 0.01 seconds
(null): 129 rows, 76 columns, 459 nonzeros
Optimize a model with 129 rows, 76 columns and 459 nonzeros
Model has 80 quadratic constraints
Coefficient statistics:
  Matrix range    [1e+00, 1e+06]
  Objective range [1e+05, 1e+07]
  Bounds range    [1e+00, 1e+06]
  RHS range       [1e+00, 1e+06]
Presolve removed 31 rows and 17 columns
Presolve time: 0.03s
Presolved: 219 rows, 124 columns, 944 nonzeros
Variable types: 56 continuous, 68 integer (48 binary)
Found heuristic solution: objective 2.145500e+07

Root relaxation: objective 1.148820e+07, 22 iterations, 0.00 seconds

    Nodes    |    Current Node    |     Objective Bounds      |     Work
 Expl Unexpl |  Obj  Depth IntInf | Incumbent    BestBd   Gap | It/Node Time

     0     0 1.1488e+07    0    2 2.1455e+07 1.1488e+07  46.5%     -    0s
     0     0 1.1598e+07    0   11 2.1455e+07 1.1598e+07  45.9%     -    0s
     0     0 1.1792e+07    0   22 2.1455e+07 1.1792e+07  45.0%     -    0s
     0     0 1.2105e+07    0   22 2.1455e+07 1.2105e+07  43.6%     -    0s
     0     0 1.7162e+07    0    5 2.1455e+07 1.7162e+07  20.0%     -    0s
     0     0     cutoff    0      2.1455e+07 2.1455e+07  0.00%     -    0s

Explored 0 nodes (109 simplex iterations) in 0.04 seconds
Thread count was 2 (of 4 available processors)

Optimal solution found (tolerance 1.00e-04)
Best objective 2.145500000000e+07, best bound 2.145500000000e+07, gap 0.0%
k_c1	30000.0
k_c2	909999.0
k_c3	879998.0
k_c4	1000000.0
k_dN	-0.0
o_1	-0.0
o_2	-0.0
o_3	-0.0
o_4	-0.0
p_1	-0.0
p_2	-0.0
p_3	-0.0
p_4	-0.0
phi_c1	24543.0
phi_c2	41067.0
phi_c3	30296.0
phi_c4	49878.0
phi_dN	-0.0
pi_c1	-0.0
pi_c2	-0.0
pi_c3	-0.0
pi_c4	-0.0
pi_dN	-0.0
tauD_c1	800000.0
tauD_c2	450000.0
tauD_c3	800000.0
tauD_c4	250000.0
tauD_d0	-0.0
tauD_dN	1000000.0
tauS_c1	835100.0
tauS_c2	849250.0
tauS_c3	35025.0
tauS_c4	29225.0
tauS_d0	-0.0
tauS_dN	230750.0
x_c1_dN	1.0
x_c2_c1	1.0
x_c3_dN	1.0
x_c4_c3	1.0
x_d0_c2	1.0
x_d0_c4	1.0
